6757
1 1 1 0 1 1 0 1 1 0 0 0 0 0 1 1 0 0 1 0 
0 0 0 0 0 0 0 1 1 15 1 1 1 1 15 2 2 2 2 2 2 4 4 4 4 4 4 4 4 5 5 5 5 5 5 5 5 5 0 0 2 2 4 8 18 14 18 7 15 5 8 8 14 18 18 0 14 15 7 7 2 2 15 8 18 7 8 8 7 7 18 2 18 8 14 14 8 14 7 7 
